x low 32.00
p edge 116 2468
n 1 1.00
n 2 1.00
n 3 1.00
n 6 1.00
n 7 1.00
n 8 1.00
n 9 1.00
n 10 1.00
n 11 1.00
n 12 1.00
n 13 1.00
n 14 1.00
n 16 1.00
n 68 1.00
n 62 1.00
n 60 1.00
n 59 1.00
n 58 1.00
n 57 1.00
n 56 1.00
n 55 1.00
n 45 1.00
n 44 1.00
n 43 1.00
n 42 1.00
n 41 1.00
n 40 1.00
n 39 1.00
n 38 1.00
n 188 1.00
n 187 1.00
n 37 1.00
n 180 1.00
n 179 1.00
n 178 1.00
n 177 1.00
n 186 1.00
n 176 1.00
n 175 1.00
n 174 1.00
n 173 1.00
n 172 1.00
n 171 1.00
n 170 1.00
n 169 1.00
n 168 1.00
n 167 1.00
n 163 1.00
n 162 1.00
n 97 1.00
n 96 1.00
n 95 1.00
n 94 1.00
n 93 1.00
n 92 1.00
n 91 1.00
n 90 1.00
n 89 1.00
n 88 1.00
n 87 1.00
n 86 1.00
n 85 1.00
n 84 1.00
n 83 1.00
n 82 1.00
n 81 1.00
n 80 1.00
n 79 1.00
n 78 1.00
n 77 1.00
n 76 1.00
n 75 1.00
n 74 1.00
n 73 1.00
n 72 1.00
n 71 1.00
n 69 1.00
n 100 1.00
n 99 1.00
n 35 1.00
n 160 1.00
n 111 1.00
n 110 1.00
n 36 1.00
n 151 1.00
n 117 1.00
n 116 1.00
n 115 1.00
n 114 1.00
n 34 1.00
n 140 1.00
n 136 1.00
n 132 1.00
n 130 1.00
n 128 1.00
n 124 1.00
n 123 1.00
n 122 1.00
n 121 1.00
n 125 1.00
n 17 1.00
n 18 1.00
n 19 1.00
n 20 1.00
n 21 1.00
n 22 1.00
n 23 1.00
n 24 1.00
n 25 1.00
n 26 1.00
n 27 1.00
n 28 1.00
n 29 1.00
n 30 1.00
n 31 1.00
n 32 1.00
e 1 2
e 1 3
e 1 6
e 1 7
e 1 8
e 1 9
e 1 10
e 1 11
e 1 12
e 1 13
e 1 14
e 1 16
e 1 68
e 1 62
e 1 60
e 1 59
e 1 58
e 1 57
e 1 56
e 1 55
e 1 45
e 1 44
e 1 43
e 1 42
e 1 41
e 1 40
e 1 39
e 1 38
e 1 188
e 1 187
e 1 37
e 1 180
e 1 179
e 1 178
e 1 177
e 1 186
e 1 176
e 1 175
e 1 174
e 1 173
e 1 172
e 1 171
e 1 170
e 1 169
e 1 168
e 1 167
e 1 163
e 1 162
e 1 97
e 1 96
e 1 95
e 1 94
e 1 93
e 1 92
e 1 91
e 1 90
e 1 89
e 1 88
e 1 87
e 1 86
e 1 85
e 1 84
e 1 83
e 1 82
e 1 81
e 1 80
e 1 79
e 1 78
e 1 77
e 1 76
e 1 75
e 1 74
e 1 73
e 1 72
e 1 71
e 1 69
e 1 100
e 1 99
e 1 35
e 1 160
e 1 111
e 1 110
e 1 36
e 1 151
e 1 117
e 1 116
e 1 115
e 1 114
e 1 34
e 1 140
e 1 136
e 1 132
e 1 130
e 1 128
e 1 124
e 1 123
e 1 122
e 1 121
e 1 125
e 2 3
e 2 6
e 2 7
e 2 8
e 2 9
e 2 10
e 2 11
e 2 12
e 2 13
e 2 14
e 2 16
e 2 68
e 2 62
e 2 60
e 2 59
e 2 58
e 2 57
e 2 56
e 2 55
e 2 45
e 2 44
e 2 43
e 2 42
e 2 41
e 2 40
e 2 39
e 2 38
e 2 188
e 2 187
e 2 37
e 2 180
e 2 179
e 2 178
e 2 177
e 2 186
e 2 176
e 2 175
e 2 174
e 2 173
e 2 172
e 2 171
e 2 170
e 2 169
e 2 168
e 2 167
e 2 163
e 2 162
e 2 97
e 2 96
e 2 95
e 2 94
e 2 93
e 2 92
e 2 91
e 2 90
e 2 89
e 2 88
e 2 87
e 2 86
e 2 85
e 2 84
e 2 83
e 2 82
e 2 81
e 2 80
e 2 79
e 2 78
e 2 77
e 2 76
e 2 75
e 2 74
e 2 73
e 2 72
e 2 71
e 2 69
e 2 100
e 2 99
e 2 35
e 2 160
e 2 111
e 2 110
e 2 36
e 2 151
e 2 117
e 2 116
e 2 115
e 2 114
e 2 34
e 2 140
e 2 136
e 2 132
e 2 130
e 2 128
e 2 124
e 2 123
e 2 122
e 2 121
e 2 125
e 3 6
e 3 7
e 3 8
e 3 9
e 3 10
e 3 11
e 3 12
e 3 13
e 3 14
e 3 16
e 3 60
e 3 59
e 3 58
e 3 57
e 3 56
e 3 55
e 3 45
e 3 44
e 3 43
e 3 42
e 3 41
e 3 40
e 3 39
e 3 38
e 6 7
e 6 8
e 6 9
e 6 10
e 6 11
e 6 12
e 6 13
e 6 14
e 6 16
e 6 39
e 6 38
e 6 175
e 6 176
e 7 8
e 7 9
e 7 10
e 7 11
e 7 12
e 7 13
e 7 14
e 7 16
e 7 40
e 7 39
e 7 38
e 7 174
e 7 175
e 7 176
e 8 9
e 8 10
e 8 11
e 8 12
e 8 13
e 8 14
e 8 16
e 8 41
e 8 40
e 8 39
e 8 38
e 8 173
e 8 174
e 8 175
e 8 176
e 9 10
e 9 11
e 9 12
e 9 13
e 9 14
e 9 16
e 9 42
e 9 41
e 9 40
e 9 39
e 9 38
e 9 172
e 9 173
e 9 174
e 9 175
e 9 176
e 10 11
e 10 12
e 10 13
e 10 14
e 10 16
e 10 43
e 10 42
e 10 41
e 10 40
e 10 39
e 10 38
e 10 171
e 10 172
e 10 173
e 10 174
e 10 175
e 10 176
e 11 12
e 11 13
e 11 14
e 11 16
e 11 45
e 11 44
e 11 43
e 11 42
e 11 41
e 11 40
e 11 39
e 11 38
e 12 13
e 12 14
e 12 16
e 12 56
e 12 55
e 12 45
e 12 44
e 12 43
e 12 42
e 12 41
e 12 40
e 12 39
e 12 38
e 13 14
e 13 16
e 13 58
e 13 57
e 13 56
e 13 55
e 13 45
e 13 44
e 13 43
e 13 42
e 13 41
e 13 40
e 13 39
e 13 38
e 14 16
e 14 59
e 14 58
e 14 57
e 14 56
e 14 55
e 14 45
e 14 44
e 14 43
e 14 42
e 14 41
e 14 40
e 14 39
e 14 38
e 16 44
e 16 43
e 16 42
e 16 41
e 16 40
e 16 39
e 16 38
e 16 171
e 16 172
e 16 173
e 16 174
e 16 175
e 16 176
e 16 170
e 17 18
e 17 19
e 17 20
e 17 21
e 17 22
e 17 23
e 17 24
e 17 25
e 17 26
e 17 27
e 17 28
e 17 29
e 17 30
e 17 31
e 17 32
e 17 34
e 17 35
e 17 36
e 17 37
e 17 38
e 17 39
e 17 40
e 17 41
e 17 42
e 17 43
e 17 44
e 17 45
e 17 55
e 17 56
e 17 57
e 17 58
e 17 59
e 17 60
e 17 62
e 17 68
e 17 69
e 17 71
e 17 72
e 17 73
e 17 74
e 17 75
e 17 76
e 17 77
e 17 78
e 17 79
e 17 80
e 17 81
e 17 82
e 17 83
e 17 84
e 17 85
e 17 86
e 17 87
e 17 88
e 17 89
e 17 90
e 17 91
e 17 92
e 17 93
e 17 94
e 17 95
e 17 96
e 17 97
e 17 99
e 17 100
e 17 110
e 17 111
e 17 114
e 17 115
e 17 116
e 17 117
e 17 121
e 17 122
e 17 123
e 17 124
e 17 125
e 17 128
e 17 130
e 17 132
e 17 136
e 17 140
e 17 151
e 17 160
e 17 162
e 17 163
e 17 167
e 17 168
e 17 169
e 17 170
e 17 171
e 17 172
e 17 173
e 17 174
e 17 175
e 17 176
e 17 177
e 17 178
e 17 179
e 17 180
e 17 186
e 17 187
e 17 188
e 18 19
e 18 20
e 18 21
e 18 22
e 18 23
e 18 24
e 18 25
e 18 26
e 18 27
e 18 28
e 18 29
e 18 30
e 18 31
e 18 32
e 18 34
e 18 35
e 18 36
e 18 37
e 18 38
e 18 39
e 18 40
e 18 41
e 18 42
e 18 43
e 18 44
e 18 45
e 18 55
e 18 56
e 18 57
e 18 58
e 18 59
e 18 60
e 18 62
e 18 68
e 18 69
e 18 71
e 18 72
e 18 73
e 18 74
e 18 75
e 18 76
e 18 77
e 18 78
e 18 79
e 18 80
e 18 81
e 18 82
e 18 83
e 18 84
e 18 85
e 18 86
e 18 87
e 18 88
e 18 89
e 18 90
e 18 91
e 18 92
e 18 93
e 18 94
e 18 95
e 18 96
e 18 97
e 18 99
e 18 100
e 18 110
e 18 111
e 18 114
e 18 115
e 18 116
e 18 117
e 18 121
e 18 122
e 18 123
e 18 124
e 18 125
e 18 128
e 18 130
e 18 132
e 18 136
e 18 140
e 18 151
e 18 160
e 18 162
e 18 163
e 18 167
e 18 168
e 18 169
e 18 170
e 18 171
e 18 172
e 18 173
e 18 174
e 18 175
e 18 176
e 18 177
e 18 178
e 18 179
e 18 180
e 18 186
e 18 187
e 18 188
e 19 20
e 19 21
e 19 22
e 19 23
e 19 24
e 19 25
e 19 26
e 19 27
e 19 28
e 19 29
e 19 30
e 19 31
e 19 32
e 19 34
e 19 35
e 19 36
e 19 37
e 19 38
e 19 39
e 19 40
e 19 41
e 19 42
e 19 43
e 19 44
e 19 45
e 19 55
e 19 56
e 19 57
e 19 58
e 19 59
e 19 60
e 19 62
e 19 68
e 19 69
e 19 71
e 19 72
e 19 73
e 19 74
e 19 75
e 19 76
e 19 77
e 19 78
e 19 79
e 19 80
e 19 81
e 19 82
e 19 83
e 19 84
e 19 85
e 19 86
e 19 87
e 19 88
e 19 89
e 19 90
e 19 91
e 19 92
e 19 93
e 19 94
e 19 95
e 19 96
e 19 97
e 19 99
e 19 100
e 19 110
e 19 111
e 19 114
e 19 115
e 19 116
e 19 117
e 19 121
e 19 122
e 19 123
e 19 124
e 19 125
e 19 128
e 19 130
e 19 132
e 19 136
e 19 140
e 19 151
e 19 160
e 19 162
e 19 163
e 19 167
e 19 168
e 19 169
e 19 170
e 19 171
e 19 172
e 19 173
e 19 174
e 19 175
e 19 176
e 19 177
e 19 178
e 19 179
e 19 180
e 19 186
e 19 187
e 19 188
e 20 21
e 20 22
e 20 23
e 20 24
e 20 25
e 20 26
e 20 27
e 20 28
e 20 29
e 20 30
e 20 31
e 20 32
e 20 34
e 20 35
e 20 36
e 20 37
e 20 38
e 20 39
e 20 40
e 20 41
e 20 42
e 20 43
e 20 44
e 20 45
e 20 55
e 20 56
e 20 57
e 20 58
e 20 59
e 20 60
e 20 62
e 20 68
e 20 69
e 20 71
e 20 72
e 20 73
e 20 74
e 20 75
e 20 76
e 20 77
e 20 78
e 20 79
e 20 80
e 20 81
e 20 82
e 20 83
e 20 84
e 20 85
e 20 86
e 20 87
e 20 88
e 20 89
e 20 90
e 20 91
e 20 92
e 20 93
e 20 94
e 20 95
e 20 96
e 20 97
e 20 99
e 20 100
e 20 110
e 20 111
e 20 114
e 20 115
e 20 116
e 20 117
e 20 121
e 20 122
e 20 123
e 20 124
e 20 125
e 20 128
e 20 130
e 20 132
e 20 136
e 20 140
e 20 151
e 20 160
e 20 162
e 20 163
e 20 167
e 20 168
e 20 169
e 20 170
e 20 171
e 20 172
e 20 173
e 20 174
e 20 175
e 20 176
e 20 177
e 20 178
e 20 179
e 20 180
e 20 186
e 20 187
e 20 188
e 21 22
e 21 23
e 21 24
e 21 25
e 21 26
e 21 27
e 21 28
e 21 29
e 21 30
e 21 31
e 21 32
e 21 34
e 21 35
e 21 36
e 21 37
e 21 38
e 21 39
e 21 40
e 21 41
e 21 42
e 21 43
e 21 44
e 21 45
e 21 55
e 21 56
e 21 57
e 21 58
e 21 59
e 21 60
e 21 62
e 21 68
e 21 69
e 21 71
e 21 72
e 21 73
e 21 74
e 21 75
e 21 76
e 21 77
e 21 78
e 21 79
e 21 80
e 21 81
e 21 82
e 21 83
e 21 84
e 21 85
e 21 86
e 21 87
e 21 88
e 21 89
e 21 90
e 21 91
e 21 92
e 21 93
e 21 94
e 21 95
e 21 96
e 21 97
e 21 99
e 21 100
e 21 110
e 21 111
e 21 114
e 21 115
e 21 116
e 21 117
e 21 121
e 21 122
e 21 123
e 21 124
e 21 125
e 21 128
e 21 130
e 21 132
e 21 136
e 21 140
e 21 151
e 21 160
e 21 162
e 21 163
e 21 167
e 21 168
e 21 169
e 21 170
e 21 171
e 21 172
e 21 173
e 21 174
e 21 175
e 21 176
e 21 177
e 21 178
e 21 179
e 21 180
e 21 186
e 21 187
e 21 188
e 22 23
e 22 24
e 22 25
e 22 26
e 22 27
e 22 28
e 22 29
e 22 30
e 22 31
e 22 32
e 22 34
e 22 35
e 22 36
e 22 37
e 22 38
e 22 39
e 22 40
e 22 41
e 22 42
e 22 43
e 22 44
e 22 45
e 22 55
e 22 56
e 22 57
e 22 58
e 22 59
e 22 60
e 22 62
e 22 68
e 22 69
e 22 71
e 22 72
e 22 73
e 22 74
e 22 75
e 22 76
e 22 77
e 22 78
e 22 79
e 22 80
e 22 81
e 22 82
e 22 83
e 22 84
e 22 85
e 22 86
e 22 87
e 22 88
e 22 89
e 22 90
e 22 91
e 22 92
e 22 93
e 22 94
e 22 95
e 22 96
e 22 97
e 22 99
e 22 100
e 22 110
e 22 111
e 22 114
e 22 115
e 22 116
e 22 117
e 22 121
e 22 122
e 22 123
e 22 124
e 22 125
e 22 128
e 22 130
e 22 132
e 22 136
e 22 140
e 22 151
e 22 160
e 22 162
e 22 163
e 22 167
e 22 168
e 22 169
e 22 170
e 22 171
e 22 172
e 22 173
e 22 174
e 22 175
e 22 176
e 22 177
e 22 178
e 22 179
e 22 180
e 22 186
e 22 187
e 22 188
e 23 24
e 23 25
e 23 26
e 23 27
e 23 28
e 23 29
e 23 30
e 23 31
e 23 32
e 23 34
e 23 35
e 23 36
e 23 37
e 23 38
e 23 39
e 23 40
e 23 41
e 23 42
e 23 43
e 23 44
e 23 45
e 23 55
e 23 56
e 23 57
e 23 58
e 23 59
e 23 60
e 23 62
e 23 68
e 23 69
e 23 71
e 23 72
e 23 73
e 23 74
e 23 75
e 23 76
e 23 77
e 23 78
e 23 79
e 23 80
e 23 81
e 23 82
e 23 83
e 23 84
e 23 85
e 23 86
e 23 87
e 23 88
e 23 89
e 23 90
e 23 91
e 23 92
e 23 93
e 23 94
e 23 95
e 23 96
e 23 97
e 23 99
e 23 100
e 23 110
e 23 111
e 23 114
e 23 115
e 23 116
e 23 117
e 23 121
e 23 122
e 23 123
e 23 124
e 23 125
e 23 128
e 23 130
e 23 132
e 23 136
e 23 140
e 23 151
e 23 160
e 23 162
e 23 163
e 23 167
e 23 168
e 23 169
e 23 170
e 23 171
e 23 172
e 23 173
e 23 174
e 23 175
e 23 176
e 23 177
e 23 178
e 23 179
e 23 180
e 23 186
e 23 187
e 23 188
e 24 25
e 24 26
e 24 27
e 24 28
e 24 29
e 24 30
e 24 31
e 24 32
e 24 34
e 24 35
e 24 36
e 24 37
e 24 38
e 24 39
e 24 40
e 24 41
e 24 42
e 24 43
e 24 44
e 24 45
e 24 55
e 24 56
e 24 57
e 24 58
e 24 59
e 24 60
e 24 62
e 24 68
e 24 69
e 24 71
e 24 72
e 24 73
e 24 74
e 24 75
e 24 76
e 24 77
e 24 78
e 24 79
e 24 80
e 24 81
e 24 82
e 24 83
e 24 84
e 24 85
e 24 86
e 24 87
e 24 88
e 24 89
e 24 90
e 24 91
e 24 92
e 24 93
e 24 94
e 24 95
e 24 96
e 24 97
e 24 99
e 24 100
e 24 110
e 24 111
e 24 114
e 24 115
e 24 116
e 24 117
e 24 121
e 24 122
e 24 123
e 24 124
e 24 125
e 24 128
e 24 130
e 24 132
e 24 136
e 24 140
e 24 151
e 24 160
e 24 162
e 24 163
e 24 167
e 24 168
e 24 169
e 24 170
e 24 171
e 24 172
e 24 173
e 24 174
e 24 175
e 24 176
e 24 177
e 24 178
e 24 179
e 24 180
e 24 186
e 24 187
e 24 188
e 25 26
e 25 27
e 25 28
e 25 29
e 25 30
e 25 31
e 25 32
e 25 34
e 25 35
e 25 36
e 25 37
e 25 38
e 25 39
e 25 40
e 25 41
e 25 42
e 25 43
e 25 44
e 25 45
e 25 55
e 25 56
e 25 57
e 25 58
e 25 59
e 25 60
e 25 62
e 25 68
e 25 69
e 25 71
e 25 72
e 25 73
e 25 74
e 25 75
e 25 76
e 25 77
e 25 78
e 25 79
e 25 80
e 25 81
e 25 82
e 25 83
e 25 84
e 25 85
e 25 86
e 25 87
e 25 88
e 25 89
e 25 90
e 25 91
e 25 92
e 25 93
e 25 94
e 25 95
e 25 96
e 25 97
e 25 99
e 25 100
e 25 110
e 25 111
e 25 114
e 25 115
e 25 116
e 25 117
e 25 121
e 25 122
e 25 123
e 25 124
e 25 125
e 25 128
e 25 130
e 25 132
e 25 136
e 25 140
e 25 151
e 25 160
e 25 162
e 25 163
e 25 167
e 25 168
e 25 169
e 25 170
e 25 171
e 25 172
e 25 173
e 25 174
e 25 175
e 25 176
e 25 177
e 25 178
e 25 179
e 25 180
e 25 186
e 25 187
e 25 188
e 26 27
e 26 28
e 26 29
e 26 30
e 26 31
e 26 32
e 26 34
e 26 35
e 26 36
e 26 37
e 26 38
e 26 39
e 26 40
e 26 41
e 26 42
e 26 43
e 26 44
e 26 45
e 26 55
e 26 56
e 26 57
e 26 58
e 26 59
e 26 60
e 26 62
e 26 68
e 26 69
e 26 71
e 26 72
e 26 73
e 26 74
e 26 75
e 26 76
e 26 77
e 26 78
e 26 79
e 26 80
e 26 81
e 26 82
e 26 83
e 26 84
e 26 85
e 26 86
e 26 87
e 26 88
e 26 89
e 26 90
e 26 91
e 26 92
e 26 93
e 26 94
e 26 95
e 26 96
e 26 97
e 26 99
e 26 100
e 26 110
e 26 111
e 26 114
e 26 115
e 26 116
e 26 117
e 26 121
e 26 122
e 26 123
e 26 124
e 26 125
e 26 128
e 26 130
e 26 132
e 26 136
e 26 140
e 26 151
e 26 160
e 26 162
e 26 163
e 26 167
e 26 168
e 26 169
e 26 170
e 26 171
e 26 172
e 26 173
e 26 174
e 26 175
e 26 176
e 26 177
e 26 178
e 26 179
e 26 180
e 26 186
e 26 187
e 26 188
e 27 28
e 27 29
e 27 30
e 27 31
e 27 32
e 27 34
e 27 35
e 27 36
e 27 37
e 27 38
e 27 39
e 27 40
e 27 41
e 27 42
e 27 43
e 27 44
e 27 45
e 27 55
e 27 56
e 27 57
e 27 58
e 27 59
e 27 60
e 27 62
e 27 68
e 27 69
e 27 71
e 27 72
e 27 73
e 27 74
e 27 75
e 27 76
e 27 77
e 27 78
e 27 79
e 27 80
e 27 81
e 27 82
e 27 83
e 27 84
e 27 85
e 27 86
e 27 87
e 27 88
e 27 89
e 27 90
e 27 91
e 27 92
e 27 93
e 27 94
e 27 95
e 27 96
e 27 97
e 27 99
e 27 100
e 27 110
e 27 111
e 27 114
e 27 115
e 27 116
e 27 117
e 27 121
e 27 122
e 27 123
e 27 124
e 27 125
e 27 128
e 27 130
e 27 132
e 27 136
e 27 140
e 27 151
e 27 160
e 27 162
e 27 163
e 27 167
e 27 168
e 27 169
e 27 170
e 27 171
e 27 172
e 27 173
e 27 174
e 27 175
e 27 176
e 27 177
e 27 178
e 27 179
e 27 180
e 27 186
e 27 187
e 27 188
e 28 29
e 28 30
e 28 31
e 28 32
e 28 34
e 28 35
e 28 36
e 28 37
e 28 38
e 28 39
e 28 40
e 28 41
e 28 42
e 28 43
e 28 44
e 28 45
e 28 55
e 28 56
e 28 57
e 28 58
e 28 59
e 28 60
e 28 62
e 28 68
e 28 69
e 28 71
e 28 72
e 28 73
e 28 74
e 28 75
e 28 76
e 28 77
e 28 78
e 28 79
e 28 80
e 28 81
e 28 82
e 28 83
e 28 84
e 28 85
e 28 86
e 28 87
e 28 88
e 28 89
e 28 90
e 28 91
e 28 92
e 28 93
e 28 94
e 28 95
e 28 96
e 28 97
e 28 99
e 28 100
e 28 110
e 28 111
e 28 114
e 28 115
e 28 116
e 28 117
e 28 121
e 28 122
e 28 123
e 28 124
e 28 125
e 28 128
e 28 130
e 28 132
e 28 136
e 28 140
e 28 151
e 28 160
e 28 162
e 28 163
e 28 167
e 28 168
e 28 169
e 28 170
e 28 171
e 28 172
e 28 173
e 28 174
e 28 175
e 28 176
e 28 177
e 28 178
e 28 179
e 28 180
e 28 186
e 28 187
e 28 188
e 29 30
e 29 31
e 29 32
e 29 34
e 29 35
e 29 36
e 29 37
e 29 38
e 29 39
e 29 40
e 29 41
e 29 42
e 29 43
e 29 44
e 29 45
e 29 55
e 29 56
e 29 57
e 29 58
e 29 59
e 29 60
e 29 62
e 29 68
e 29 69
e 29 71
e 29 72
e 29 73
e 29 74
e 29 75
e 29 76
e 29 77
e 29 78
e 29 79
e 29 80
e 29 81
e 29 82
e 29 83
e 29 84
e 29 85
e 29 86
e 29 87
e 29 88
e 29 89
e 29 90
e 29 91
e 29 92
e 29 93
e 29 94
e 29 95
e 29 96
e 29 97
e 29 99
e 29 100
e 29 110
e 29 111
e 29 114
e 29 115
e 29 116
e 29 117
e 29 121
e 29 122
e 29 123
e 29 124
e 29 125
e 29 128
e 29 130
e 29 132
e 29 136
e 29 140
e 29 151
e 29 160
e 29 162
e 29 163
e 29 167
e 29 168
e 29 169
e 29 170
e 29 171
e 29 172
e 29 173
e 29 174
e 29 175
e 29 176
e 29 177
e 29 178
e 29 179
e 29 180
e 29 186
e 29 187
e 29 188
e 30 31
e 30 32
e 30 34
e 30 35
e 30 36
e 30 37
e 30 38
e 30 39
e 30 40
e 30 41
e 30 42
e 30 43
e 30 44
e 30 45
e 30 55
e 30 56
e 30 57
e 30 58
e 30 59
e 30 60
e 30 62
e 30 68
e 30 69
e 30 71
e 30 72
e 30 73
e 30 74
e 30 75
e 30 76
e 30 77
e 30 78
e 30 79
e 30 80
e 30 81
e 30 82
e 30 83
e 30 84
e 30 85
e 30 86
e 30 87
e 30 88
e 30 89
e 30 90
e 30 91
e 30 92
e 30 93
e 30 94
e 30 95
e 30 96
e 30 97
e 30 99
e 30 100
e 30 110
e 30 111
e 30 114
e 30 115
e 30 116
e 30 117
e 30 121
e 30 122
e 30 123
e 30 124
e 30 125
e 30 128
e 30 130
e 30 132
e 30 136
e 30 140
e 30 151
e 30 160
e 30 162
e 30 163
e 30 167
e 30 168
e 30 169
e 30 170
e 30 171
e 30 172
e 30 173
e 30 174
e 30 175
e 30 176
e 30 177
e 30 178
e 30 179
e 30 180
e 30 186
e 30 187
e 30 188
e 31 32
e 31 34
e 31 35
e 31 36
e 31 37
e 31 38
e 31 39
e 31 40
e 31 41
e 31 42
e 31 43
e 31 44
e 31 45
e 31 55
e 31 56
e 31 57
e 31 58
e 31 59
e 31 60
e 31 62
e 31 68
e 31 69
e 31 71
e 31 72
e 31 73
e 31 74
e 31 75
e 31 76
e 31 77
e 31 78
e 31 79
e 31 80
e 31 81
e 31 82
e 31 83
e 31 84
e 31 85
e 31 86
e 31 87
e 31 88
e 31 89
e 31 90
e 31 91
e 31 92
e 31 93
e 31 94
e 31 95
e 31 96
e 31 97
e 31 99
e 31 100
e 31 110
e 31 111
e 31 114
e 31 115
e 31 116
e 31 117
e 31 121
e 31 122
e 31 123
e 31 124
e 31 125
e 31 128
e 31 130
e 31 132
e 31 136
e 31 140
e 31 151
e 31 160
e 31 162
e 31 163
e 31 167
e 31 168
e 31 169
e 31 170
e 31 171
e 31 172
e 31 173
e 31 174
e 31 175
e 31 176
e 31 177
e 31 178
e 31 179
e 31 180
e 31 186
e 31 187
e 31 188
e 32 34
e 32 35
e 32 36
e 32 37
e 32 38
e 32 39
e 32 40
e 32 41
e 32 42
e 32 43
e 32 44
e 32 45
e 32 55
e 32 56
e 32 57
e 32 58
e 32 59
e 32 60
e 32 62
e 32 68
e 32 69
e 32 71
e 32 72
e 32 73
e 32 74
e 32 75
e 32 76
e 32 77
e 32 78
e 32 79
e 32 80
e 32 81
e 32 82
e 32 83
e 32 84
e 32 85
e 32 86
e 32 87
e 32 88
e 32 89
e 32 90
e 32 91
e 32 92
e 32 93
e 32 94
e 32 95
e 32 96
e 32 97
e 32 99
e 32 100
e 32 110
e 32 111
e 32 114
e 32 115
e 32 116
e 32 117
e 32 121
e 32 122
e 32 123
e 32 124
e 32 125
e 32 128
e 32 130
e 32 132
e 32 136
e 32 140
e 32 151
e 32 160
e 32 162
e 32 163
e 32 167
e 32 168
e 32 169
e 32 170
e 32 171
e 32 172
e 32 173
e 32 174
e 32 175
e 32 176
e 32 177
e 32 178
e 32 179
e 32 180
e 32 186
e 32 187
e 32 188
e 34 96
e 34 95
e 34 93
e 34 92
e 34 90
e 34 89
e 34 86
e 34 85
e 34 83
e 34 71
e 34 60
e 34 140
e 34 136
e 34 132
e 34 130
e 34 128
e 35 96
e 35 95
e 35 93
e 35 92
e 35 90
e 35 89
e 35 86
e 35 85
e 35 83
e 35 71
e 35 60
e 35 160
e 36 96
e 36 95
e 36 93
e 36 92
e 36 90
e 36 89
e 36 86
e 36 85
e 36 83
e 36 71
e 36 60
e 36 151
e 37 180
e 37 179
e 37 186
e 60 68
e 60 62
e 60 97
e 60 96
e 60 95
e 60 94
e 60 93
e 60 92
e 60 91
e 60 90
e 60 89
e 60 88
e 60 87
e 60 86
e 60 85
e 60 84
e 60 83
e 60 82
e 60 81
e 60 80
e 60 79
e 60 78
e 60 77
e 60 76
e 60 75
e 60 74
e 60 73
e 60 72
e 60 71
e 60 69
e 60 100
e 60 99
e 60 160
e 60 111
e 60 110
e 60 151
e 60 117
e 60 116
e 60 115
e 60 114
e 60 140
e 60 136
e 60 132
e 60 130
e 60 128
e 60 124
e 60 123
e 60 122
e 60 121
e 69 74
e 69 73
e 69 72
e 69 71
e 71 97
e 71 96
e 71 95
e 71 94
e 71 93
e 71 92
e 71 91
e 71 90
e 71 89
e 71 88
e 71 87
e 71 86
e 71 85
e 71 84
e 71 83
e 71 82
e 71 81
e 71 80
e 71 79
e 71 78
e 71 77
e 71 76
e 71 75
e 71 74
e 71 73
e 71 72
e 71 100
e 71 99
e 71 160
e 71 111
e 71 110
e 71 151
e 71 117
e 71 116
e 71 115
e 71 114
e 71 140
e 71 136
e 71 132
e 71 130
e 71 128
e 71 124
e 71 123
e 71 122
e 71 121
e 73 74
e 77 81
e 77 80
e 77 79
e 77 78
e 78 83
e 78 82
e 78 81
e 78 80
e 78 79
e 79 84
e 79 83
e 79 82
e 79 81
e 79 80
e 80 85
e 80 84
e 80 83
e 80 82
e 80 81
e 81 87
e 81 86
e 81 85
e 81 84
e 81 83
e 81 82
e 82 89
e 82 88
e 82 87
e 82 86
e 82 85
e 82 84
e 82 83
e 83 97
e 83 96
e 83 95
e 83 94
e 83 93
e 83 92
e 83 91
e 83 90
e 83 89
e 83 88
e 83 87
e 83 86
e 83 85
e 83 84
e 83 100
e 83 99
e 83 160
e 83 111
e 83 110
e 83 151
e 83 117
e 83 116
e 83 115
e 83 114
e 83 140
e 83 136
e 83 132
e 83 130
e 83 128
e 83 124
e 83 123
e 83 122
e 83 121
e 84 86
e 84 85
e 85 97
e 85 96
e 85 95
e 85 94
e 85 93
e 85 92
e 85 91
e 85 90
e 85 89
e 85 88
e 85 87
e 85 86
e 85 100
e 85 99
e 85 160
e 85 111
e 85 110
e 85 151
e 85 117
e 85 116
e 85 115
e 85 114
e 85 140
e 85 136
e 85 132
e 85 130
e 85 128
e 85 124
e 85 123
e 85 122
e 85 121
e 86 97
e 86 96
e 86 95
e 86 94
e 86 93
e 86 92
e 86 91
e 86 90
e 86 89
e 86 88
e 86 87
e 86 100
e 86 99
e 86 160
e 86 111
e 86 110
e 86 151
e 86 117
e 86 116
e 86 115
e 86 114
e 86 140
e 86 136
e 86 132
e 86 130
e 86 128
e 86 124
e 86 123
e 86 122
e 86 121
e 87 92
e 87 91
e 87 90
e 87 89
e 87 88
e 88 95
e 88 94
e 88 93
e 88 92
e 88 91
e 88 90
e 88 89
e 89 97
e 89 96
e 89 95
e 89 94
e 89 93
e 89 92
e 89 91
e 89 90
e 89 100
e 89 99
e 89 160
e 89 111
e 89 110
e 89 151
e 89 117
e 89 116
e 89 115
e 89 114
e 89 140
e 89 136
e 89 132
e 89 130
e 89 128
e 89 124
e 89 123
e 89 122
e 89 121
e 90 97
e 90 96
e 90 95
e 90 94
e 90 93
e 90 92
e 90 91
e 90 100
e 90 99
e 90 160
e 90 111
e 90 110
e 90 151
e 90 117
e 90 116
e 90 115
e 90 114
e 90 140
e 90 136
e 90 132
e 90 130
e 90 128
e 90 124
e 90 123
e 90 122
e 90 121
e 92 97
e 92 96
e 92 95
e 92 94
e 92 93
e 92 100
e 92 99
e 92 160
e 92 111
e 92 110
e 92 151
e 92 117
e 92 116
e 92 115
e 92 114
e 92 140
e 92 136
e 92 132
e 92 130
e 92 128
e 92 124
e 92 123
e 92 122
e 92 121
e 93 97
e 93 96
e 93 95
e 93 94
e 93 100
e 93 99
e 93 160
e 93 111
e 93 110
e 93 151
e 93 117
e 93 116
e 93 115
e 93 114
e 93 140
e 93 136
e 93 132
e 93 130
e 93 128
e 93 124
e 93 123
e 93 122
e 93 121
e 95 97
e 95 96
e 95 100
e 95 99
e 95 160
e 95 111
e 95 110
e 95 151
e 95 117
e 95 116
e 95 115
e 95 114
e 95 140
e 95 136
e 95 132
e 95 130
e 95 128
e 95 124
e 95 123
e 95 122
e 95 121
e 96 97
e 96 100
e 96 99
e 96 160
e 96 111
e 96 110
e 96 151
e 96 117
e 96 116
e 96 115
e 96 114
e 96 140
e 96 136
e 96 132
e 96 130
e 96 128
e 96 124
e 96 123
e 96 122
e 96 121
e 99 100
e 110 111
e 114 117
e 114 116
e 114 115
e 115 117
e 115 116
e 116 117
e 122 123
e 128 136
e 128 132
e 128 130
e 162 163
e 167 168
e 169 176
e 169 175
e 169 174
e 169 173
e 169 172
e 169 171
e 169 170
e 170 176
e 170 175
e 170 174
e 170 173
e 170 172
e 170 171
e 171 176
e 171 175
e 171 174
e 171 173
e 171 172
e 172 176
e 172 175
e 172 174
e 172 173
e 173 176
e 173 175
e 173 174
e 174 176
e 174 175
e 175 176
e 177 178
e 178 179
e 179 180
e 179 186
e 180 186
e 17 1
e 17 2
e 17 3
e 17 6
e 17 7
e 17 8
e 17 9
e 17 10
e 17 11
e 17 12
e 17 13
e 17 14
e 17 16
e 26 1
e 26 2
e 26 3
e 26 6
e 26 7
e 26 8
e 26 9
e 26 10
e 26 11
e 26 12
e 26 13
e 26 14
e 26 16
e 25 1
e 25 2
e 25 3
e 25 6
e 25 7
e 25 8
e 25 9
e 25 10
e 25 11
e 25 12
e 25 13
e 25 14
e 25 16
e 24 1
e 24 2
e 24 3
e 24 6
e 24 7
e 24 8
e 24 9
e 24 10
e 24 11
e 24 12
e 24 13
e 24 14
e 24 16
e 23 1
e 23 2
e 23 3
e 23 6
e 23 7
e 23 8
e 23 9
e 23 10
e 23 11
e 23 12
e 23 13
e 23 14
e 23 16
e 22 1
e 22 2
e 22 3
e 22 6
e 22 7
e 22 8
e 22 9
e 22 10
e 22 11
e 22 12
e 22 13
e 22 14
e 22 16
e 21 1
e 21 2
e 21 3
e 21 6
e 21 7
e 21 8
e 21 9
e 21 10
e 21 11
e 21 12
e 21 13
e 21 14
e 21 16
e 20 1
e 20 2
e 20 3
e 20 6
e 20 7
e 20 8
e 20 9
e 20 10
e 20 11
e 20 12
e 20 13
e 20 14
e 20 16
e 19 1
e 19 2
e 19 3
e 19 6
e 19 7
e 19 8
e 19 9
e 19 10
e 19 11
e 19 12
e 19 13
e 19 14
e 19 16
e 176 3
e 176 11
e 176 12
e 176 13
e 176 14
e 176 38
